(declare-fun a_ack!2721 () (_ BitVec 64))
(declare-fun b_ack!2720 () (_ BitVec 64))
(declare-fun FPCHECK_FADD_OVERFLOW ((_ FloatingPoint 11 53) (_ BitVec 64)) Bool)
(declare-fun CF_log ((_ FloatingPoint 11 53)) (_ FloatingPoint 11 53))
(assert (let ((a!1 (fp.gt (fp.abs ((_ to_fp 11 53) b_ack!2720))
                  (fp.mul roundNearestTiesToEven
                          ((_ to_fp 11 53) #x3fb999999999999a)
                          (fp.abs ((_ to_fp 11 53) a_ack!2721))))))
  (not a!1)))
(assert (not (fp.gt (fp.abs ((_ to_fp 11 53) a_ack!2721))
            ((_ to_fp 11 53) #x4000000000000000))))
(assert (let ((a!1 (fp.gt (fp.mul roundNearestTiesToEven
                          (fp.abs ((_ to_fp 11 53) b_ack!2720))
                          ((_ to_fp 11 53) #x3fe62e42fefa39ef))
                  ((_ to_fp 11 53) #x3fb999999999999a))))
  (not a!1)))
(assert (not (fp.eq ((_ to_fp 11 53) b_ack!2720) ((_ to_fp 11 53) #x0000000000000000))))
(assert (fp.lt ((_ to_fp 11 53) a_ack!2721) ((_ to_fp 11 53) #xbfe0000000000000)))
(assert (let ((a!1 (fp.add roundNearestTiesToEven
                   (fp.sub roundNearestTiesToEven
                           (fp.sub roundNearestTiesToEven
                                   ((_ to_fp 11 53) #x3ff0000000000000)
                                   ((_ to_fp 11 53) a_ack!2721))
                           ((_ to_fp 11 53) b_ack!2720))
                   ((_ to_fp 11 53) b_ack!2720))))
  (fp.eq a!1
         (fp.sub roundNearestTiesToEven
                 ((_ to_fp 11 53) #x3ff0000000000000)
                 ((_ to_fp 11 53) a_ack!2721)))))
(assert (let ((a!1 (fp.sub roundNearestTiesToEven
                   (fp.sub roundNearestTiesToEven
                           ((_ to_fp 11 53) #x3ff0000000000000)
                           ((_ to_fp 11 53) a_ack!2721))
                   (fp.sub roundNearestTiesToEven
                           (fp.sub roundNearestTiesToEven
                                   ((_ to_fp 11 53) #x3ff0000000000000)
                                   ((_ to_fp 11 53) a_ack!2721))
                           ((_ to_fp 11 53) b_ack!2720)))))
  (fp.eq a!1 ((_ to_fp 11 53) b_ack!2720))))
(assert (fp.lt (fp.sub roundNearestTiesToEven
               (fp.sub roundNearestTiesToEven
                       ((_ to_fp 11 53) #x3ff0000000000000)
                       ((_ to_fp 11 53) a_ack!2721))
               ((_ to_fp 11 53) b_ack!2720))
       ((_ to_fp 11 53) #x4024000000000000)))
(assert (let ((a!1 (fp.sub roundNearestTiesToEven
                   (fp.sub roundNearestTiesToEven
                           ((_ to_fp 11 53) #x3ff0000000000000)
                           ((_ to_fp 11 53) a_ack!2721))
                   ((_ to_fp 11 53) b_ack!2720))))
(let ((a!2 ((_ to_fp 11 53)
             roundNearestTiesToEven
             ((_ fp.to_sbv 32)
               roundTowardZero
               (fp.sub roundNearestTiesToEven
                       ((_ to_fp 11 53) #x4026000000000000)
                       a!1)))))
(let ((a!3 (fp.add roundNearestTiesToEven
                   (fp.add roundNearestTiesToEven a!1 a!2)
                   (fp.mul roundNearestTiesToEven
                           ((_ to_fp 11 53) #x3fe0000000000000)
                           (fp.sub roundNearestTiesToEven
                                   ((_ to_fp 11 53) b_ack!2720)
                                   ((_ to_fp 11 53) #x3ff0000000000000))))))
  (fp.lt a!3 ((_ to_fp 11 53) #x5fba20bd700c2c3d))))))
(assert (let ((a!1 (fp.sub roundNearestTiesToEven
                   (fp.sub roundNearestTiesToEven
                           ((_ to_fp 11 53) #x3ff0000000000000)
                           ((_ to_fp 11 53) a_ack!2721))
                   ((_ to_fp 11 53) b_ack!2720))))
(let ((a!2 ((_ to_fp 11 53)
             roundNearestTiesToEven
             ((_ fp.to_sbv 32)
               roundTowardZero
               (fp.sub roundNearestTiesToEven
                       ((_ to_fp 11 53) #x4026000000000000)
                       a!1)))))
(let ((a!3 (fp.add roundNearestTiesToEven
                   (fp.add roundNearestTiesToEven a!1 a!2)
                   (fp.mul roundNearestTiesToEven
                           ((_ to_fp 11 53) #x3fe0000000000000)
                           (fp.sub roundNearestTiesToEven
                                   ((_ to_fp 11 53) b_ack!2720)
                                   ((_ to_fp 11 53) #x3ff0000000000000))))))
  (FPCHECK_FADD_OVERFLOW
    (fp.div roundNearestTiesToEven
            ((_ to_fp 11 53) #x40325e4f7b2737fa)
            (CF_log a!3))
    #x3ff0000000000000)))))

(check-sat)
(exit)
